param N := 6;

param Q :  1  2  3  4  5  6 :=
       1   -49  0  0 10  0 20
       2    0 -39 10  0  0 10
       3    0 10 -39 10 30 10
       4   10  0 10 -29 20 10
       5    0  0 30 20 -69 20
       6   20 10 10 10 20 -49
;
